22
13
18 0 12 5
20 1 3 19 12 2 7 10 6 15 17 4 21 16 0 13 14
16 6 0 11 5 1 14 10 20 21 9 17 4 12 2 7 19 8 13 18 3 15
13 6 11 18 20 10 16 7 17 5 19 2 3 14 8 15 0 4 1 9 12 21
8 6 1 17 20 14 9 16 18 21 0 4 7 11 19
8 4 15 5 16 19 2 11 10 21
8 9 5 18 10 12 14 3 15 0 16 17 13 20 2
18 17 19 14 7 12 0 6 20 5 3 2
13 7 21 17 5 1 20 0 6 9 10 3 4 8 18 11 16 15 12 14
18 0 7 16 4 15 8 21 20 1 6 10 9 19 13
18 8 17 2 11 13 9 7 14 4 10 3 0 5 19 21 1 6
4 17 7 14 0 2 9 15 1 8 11 5 18
4 2 13 19 7 11 9 3 6 15 20 1 21 8 0 18 16 10 14
